Route #1: 98
Route #2: 48 61 19 66 12 90 113 96 5 6 53 129 49 2
Route #3: 80 41 92 107 132 93 130 127 46 43 77 106 82 64 133
Route #4: 23 4 131 38 69 94 108 34 115 27 123 50 74
Route #5: 136 83 68 116 134 40 37 17 47 119 128 11 101 14
Route #6: 88 62 70 10 13 31 97 58 35 78 120 110 45
Route #7: 29 57 44 65 72 117 9 26 22 112 25 125 36 99 87
Route #8: 89 104 63 28 103 21 1 18 55 105 111 75 73
Route #9: 20 109 124 16 32 114 137 24 85 118 52 126 95
Route #10: 86 33 135 102 100 67 42 59 60 15 8 39 51 30
Route #11: 56 79 121 54 76 122 138 71 81 91 7 84 3
Cost 14659.665642171356